<number of tasks>
70

<cycle time>
410

<task times>
1 17
2 66
3 54
4 52
5 6
6 88
7 21
8 128
9 68
10 70
11 85
12 21
13 134
14 135
15 94
16 90
17 50
18 143
19 19
20 54
21 50
22 40
23 73
24 12
25 152
26 42
27 45
28 74
29 26
30 11
31 31
32 50
33 102
34 46
35 35
36 40
37 2
38 1
39 3
40 13
41 16
42 25
43 21
44 43
45 30
46 83
47 89
48 56
49 59
50 43
51 11
52 26
53 44
54 121
55 38
56 68
57 22
58 7
59 16
60 32
61 25
62 27
63 156
64 28
65 15
66 26
67 18
68 72
69 23
70 27

<precedence relations>
1,2
1,41
1,69
1,70
2,3
3,4
3,68
4,6
4,7
5,6
5,24
5,30
6,8
7,8
8,12
9,10
10,11
11,12
12,13
12,14
13,23
14,23
15,16
16,17
16,18
17,19
18,19
19,20
19,22
19,57
20,21
21,23
22,23
23,25
23,31
23,33
24,25
25,26
25,27
25,28
25,29
26,35
27,35
28,35
29,35
30,31
31,32
32,35
33,34
34,35
35,36
35,44
35,48
35,51
35,53
35,56
35,60
35,61
35,62
36,37
37,38
38,39
39,40
40,42
41,42
42,43
43,50
44,45
45,46
46,47
47,50
48,49
49,50
51,52
52,54
53,54
54,55
57,58
58,59
59,60
61,65
62,63
63,64
64,65
64,66
64,67

<setup times forward>
1,10:20
1,11:8
1,16:20
1,17:8
1,18:8
1,19:8
1,20:8
1,21:7
1,22:7
1,41:20
1,57:8
1,58:8
1,59:7
1,69:18
1,70:7
2,10:20
2,11:8
2,16:20
2,17:8
2,18:8
2,19:8
2,20:8
2,21:7
2,22:7
2,41:20
2,57:8
2,58:8
2,59:7
2,69:18
2,70:7
3,10:20
3,11:8
3,16:20
3,17:8
3,18:8
3,19:8
3,20:8
3,21:7
3,22:7
3,41:20
3,57:8
3,58:8
3,59:7
3,68:1
3,69:18
3,70:7
4,6:20
4,10:20
4,11:8
4,16:20
4,17:8
4,18:8
4,19:8
4,20:8
4,21:7
4,22:7
4,41:20
4,57:8
4,58:8
4,59:7
4,68:1
4,69:18
4,70:7
5,6:20
5,10:20
5,11:8
5,16:20
5,17:8
5,18:8
5,19:8
5,20:8
5,21:7
5,22:7
5,41:20
5,57:8
5,58:8
5,59:7
5,68:1
5,69:18
5,70:7
6,7:20
6,9:20
6,11:28
6,15:20
6,17:28
6,18:28
6,19:28
6,20:28
6,21:13
6,22:13
6,24:20
6,30:20
6,57:28
6,58:28
6,59:13
6,68:21
6,69:38
6,70:13
7,6:20
7,8:20
7,10:20
7,11:8
7,16:20
7,17:8
7,18:8
7,19:8
7,20:8
7,21:7
7,22:7
7,41:20
7,57:8
7,58:8
7,59:7
7,68:1
7,69:18
7,70:7
8,9:20
8,11:28
8,12:28
8,15:20
8,17:28
8,18:28
8,19:28
8,20:28
8,21:13
8,22:13
8,24:20
8,30:20
8,57:28
8,58:28
8,59:13
8,68:21
8,69:38
8,70:13
9,6:20
9,8:20
9,10:20
9,16:20
9,17:8
9,18:8
9,19:8
9,20:8
9,21:7
9,22:7
9,41:20
9,57:8
9,58:8
9,59:7
9,68:1
9,69:18
9,70:7
10,1:20
10,2:20
10,3:20
10,4:20
10,5:20
10,7:20
10,11:28
10,15:20
10,17:28
10,18:28
10,19:28
10,20:28
10,21:13
10,22:13
10,24:20
10,30:20
10,57:28
10,58:28
10,59:13
10,68:21
10,69:38
10,70:13
11,1:8
11,2:8
11,3:8
11,4:8
11,5:8
11,6:28
11,7:8
11,8:28
11,15:8
11,16:28
11,21:15
11,22:15
11,24:8
11,30:8
11,41:28
11,59:15
11,68:7
11,69:10
11,70:15
12,13:15
12,14:15
12,15:8
12,16:28
12,21:15
12,22:15
12,24:8
12,30:8
12,41:28
12,59:15
12,68:7
12,69:10
12,70:15
13,15:7
13,16:13
13,17:15
13,18:15
13,19:15
13,20:15
13,23:2
13,24:7
13,30:7
13,41:13
13,57:15
13,58:15
13,68:8
13,69:25
14,15:7
14,16:13
14,17:15
14,18:15
14,19:15
14,20:15
14,23:2
14,24:7
14,30:7
14,41:13
14,57:15
14,58:15
14,68:8
14,69:25
15,6:20
15,8:20
15,10:20
15,11:8
15,12:8
15,13:7
15,14:7
15,16:20
15,41:20
15,68:1
15,69:18
15,70:7
16,1:20
16,2:20
16,3:20
16,4:20
16,5:20
16,7:20
16,9:20
16,11:28
16,12:28
16,13:13
16,14:13
16,17:28
16,18:28
16,24:20
16,30:20
16,68:21
16,69:38
16,70:13
17,1:8
17,2:8
17,3:8
17,4:8
17,5:8
17,6:28
17,7:8
17,8:28
17,9:8
17,10:28
17,13:15
17,14:15
17,24:8
17,30:8
17,41:28
17,68:7
17,69:10
17,70:15
18,1:8
18,2:8
18,3:8
18,4:8
18,5:8
18,6:28
18,7:8
18,8:28
18,9:8
18,10:28
18,13:15
18,14:15
18,24:8
18,30:8
18,41:28
18,68:7
18,69:10
18,70:15
19,1:8
19,2:8
19,3:8
19,4:8
19,5:8
19,6:28
19,7:8
19,8:28
19,9:8
19,10:28
19,13:15
19,14:15
19,22:15
19,24:8
19,30:8
19,41:28
19,68:7
19,69:10
19,70:15
20,1:8
20,2:8
20,3:8
20,4:8
20,5:8
20,6:28
20,7:8
20,8:28
20,9:8
20,10:28
20,13:15
20,14:15
20,21:15
20,22:15
20,24:8
20,30:8
20,41:28
20,59:15
20,68:7
20,69:10
20,70:15
21,1:7
21,2:7
21,3:7
21,4:7
21,5:7
21,6:13
21,7:7
21,8:13
21,9:7
21,10:13
21,11:15
21,12:15
21,23:2
21,24:7
21,30:7
21,41:13
21,57:15
21,58:15
21,68:8
21,69:25
22,1:7
22,2:7
22,3:7
22,4:7
22,5:7
22,6:13
22,7:7
22,8:13
22,9:7
22,10:13
22,11:15
22,12:15
22,20:15
22,23:2
22,24:7
22,30:7
22,41:13
22,57:15
22,58:15
22,68:8
22,69:25
23,24:5
23,30:5
23,41:15
23,57:13
23,58:13
23,59:2
23,68:6
23,69:23
23,70:2
24,6:20
24,8:20
24,10:20
24,11:8
24,12:8
24,13:7
24,14:7
24,16:20
24,17:8
24,18:8
24,19:8
24,20:8
24,21:7
24,22:7
24,23:5
24,25:5
24,31:5
24,32:5
24,33:5
24,34:11
24,41:20
24,57:8
24,58:8
24,59:7
24,68:1
24,69:18
24,70:7
25,26:16
25,27:16
25,28:16
25,29:16
25,30:5
25,34:16
25,41:15
25,57:13
25,58:13
25,59:2
25,68:6
25,69:23
25,70:2
26,30:11
26,31:16
26,32:16
26,33:16
26,41:31
26,57:3
26,58:3
26,59:18
26,68:10
26,69:7
26,70:18
27,30:11
27,31:16
27,32:16
27,33:16
27,41:31
27,57:3
27,58:3
27,59:18
27,68:10
27,69:7
27,70:18
28,30:11
28,31:16
28,32:16
28,33:16
28,41:31
28,57:3
28,58:3
28,59:18
28,68:10
28,69:7
28,70:18
29,30:11
29,31:16
29,32:16
29,33:16
29,41:31
29,57:3
29,58:3
29,59:18
29,68:10
29,69:7
29,70:18
30,6:20
30,8:20
30,10:20
30,11:8
30,12:8
30,13:7
30,14:7
30,16:20
30,17:8
30,18:8
30,19:8
30,20:8
30,21:7
30,22:7
30,23:5
30,25:5
30,26:11
30,27:11
30,28:11
30,29:11
30,31:5
30,33:5
30,34:11
30,41:20
30,57:8
30,58:8
30,59:7
30,68:1
30,69:18
30,70:7
31,24:5
31,26:16
31,27:16
31,28:16
31,29:16
31,34:16
31,41:15
31,57:13
31,58:13
31,59:2
31,68:6
31,69:23
31,70:2
32,24:5
32,26:16
32,27:16
32,28:16
32,29:16
32,34:16
32,35:16
32,41:15
32,57:13
32,58:13
32,59:2
32,68:6
32,69:23
32,70:2
33,24:5
33,26:16
33,27:16
33,28:16
33,29:16
33,30:5
33,34:16
33,41:15
33,57:13
33,58:13
33,59:2
33,68:6
33,69:23
33,70:2
34,24:11
34,25:16
34,30:11
34,31:16
34,32:16
34,41:31
34,57:3
34,58:3
34,59:18
34,68:10
34,69:7
34,70:18
35,36:10
35,41:31
35,48:10
35,53:7
35,56:7
35,57:3
35,58:3
35,59:18
35,60:7
35,61:7
35,68:10
35,69:7
35,70:18
36,41:21
36,44:10
36,45:10
36,47:12
36,49:17
36,51:10
36,52:10
36,53:17
36,54:12
36,55:12
36,56:17
36,57:7
36,58:7
36,59:8
36,60:17
36,61:17
36,62:10
36,64:12
36,65:12
36,66:12
36,67:12
36,69:17
36,70:8
37,41:21
37,44:10
37,45:10
37,47:12
37,49:17
37,51:10
37,52:10
37,53:17
37,54:12
37,55:12
37,56:17
37,57:7
37,58:7
37,59:8
37,60:17
37,61:17
37,62:10
37,64:12
37,65:12
37,66:12
37,67:12
37,69:17
37,70:8
38,39:17
38,41:21
38,44:10
38,45:10
38,47:12
38,49:17
38,51:10
38,52:10
38,53:17
38,54:12
38,55:12
38,56:17
38,57:7
38,58:7
38,59:8
38,60:17
38,61:17
38,62:10
38,64:12
38,65:12
38,66:12
38,67:12
38,69:17
38,70:8
39,41:38
39,44:7
39,45:7
39,46:17
39,47:29
39,48:17
39,51:7
39,52:7
39,54:29
39,55:29
39,57:10
39,58:10
39,59:25
39,62:7
39,63:17
39,64:29
39,65:29
39,66:29
39,67:29
39,68:17
39,70:25
40,41:38
40,44:7
40,45:7
40,46:17
40,47:29
40,48:17
40,51:7
40,52:7
40,54:29
40,55:29
40,57:10
40,58:10
40,59:25
40,62:7
40,63:17
40,64:29
40,65:29
40,66:29
40,67:29
40,68:17
40,70:25
41,2:20
41,3:20
41,4:20
41,5:20
41,7:20
41,9:20
41,11:28
41,12:28
41,13:13
41,14:13
41,15:20
41,17:28
41,18:28
41,19:28
41,20:28
41,21:13
41,22:13
41,23:15
41,24:20
41,25:15
41,26:31
41,27:31
41,28:31
41,29:31
41,30:20
41,31:15
41,32:15
41,33:15
41,34:31
41,35:31
41,36:21
41,37:21
41,38:21
41,39:38
41,40:38
41,42:38
41,44:31
41,45:31
41,46:21
41,47:9
41,48:21
41,49:38
41,51:31
41,52:31
41,53:38
41,54:9
41,55:9
41,56:38
41,57:28
41,58:28
41,59:13
41,60:38
41,61:38
41,62:31
41,63:21
41,64:9
41,65:9
41,66:9
41,67:9
41,68:21
41,69:38
41,70:13
42,43:29
42,44:7
42,45:7
42,46:17
42,47:29
42,48:17
42,51:7
42,52:7
42,54:29
42,55:29
42,57:10
42,58:10
42,59:25
42,62:7
42,63:17
42,64:29
42,65:29
42,66:29
42,67:29
42,68:17
42,70:25
43,44:22
43,45:22
43,46:12
43,48:12
43,49:29
43,51:22
43,52:22
43,53:29
43,56:29
43,57:19
43,58:19
43,59:4
43,60:29
43,61:29
43,62:22
43,63:12
43,68:12
43,69:29
43,70:4
44,36:10
44,37:10
44,38:10
44,39:7
44,40:7
44,41:31
44,42:7
44,43:22
44,48:10
44,49:7
44,53:7
44,54:22
44,55:22
44,56:7
44,57:3
44,58:3
44,59:18
44,60:7
44,61:7
44,63:10
44,64:22
44,65:22
44,66:22
44,67:22
44,68:10
44,69:7
44,70:18
45,36:10
45,37:10
45,38:10
45,39:7
45,40:7
45,41:31
45,42:7
45,43:22
45,46:10
45,48:10
45,49:7
45,53:7
45,54:22
45,55:22
45,56:7
45,57:3
45,58:3
45,59:18
45,60:7
45,61:7
45,63:10
45,64:22
45,65:22
45,66:22
45,67:22
45,68:10
45,69:7
45,70:18
46,39:17
46,40:17
46,41:21
46,42:17
46,43:12
46,47:12
46,49:17
46,51:10
46,52:10
46,53:17
46,54:12
46,55:12
46,56:17
46,57:7
46,58:7
46,59:8
46,60:17
46,61:17
46,62:10
46,64:12
46,65:12
46,66:12
46,67:12
46,69:17
46,70:8
47,36:12
47,37:12
47,38:12
47,39:29
47,40:29
47,41:9
47,42:29
47,48:12
47,49:29
47,51:22
47,52:22
47,53:29
47,56:29
47,57:19
47,58:19
47,59:4
47,60:29
47,61:29
47,62:22
47,63:12
47,68:12
47,69:29
47,70:4
48,39:17
48,40:17
48,41:21
48,42:17
48,43:12
48,44:10
48,45:10
48,47:12
48,49:17
48,51:10
48,52:10
48,53:17
48,54:12
48,55:12
48,56:17
48,57:7
48,58:7
48,59:8
48,60:17
48,61:17
48,62:10
48,64:12
48,65:12
48,66:12
48,67:12
48,69:17
48,70:8
49,36:17
49,37:17
49,38:17
49,41:38
49,43:29
49,44:7
49,45:7
49,46:17
49,47:29
49,50:29
49,51:7
49,52:7
49,54:29
49,55:29
49,57:10
49,58:10
49,59:25
49,62:7
49,63:17
49,64:29
49,65:29
49,66:29
49,67:29
49,68:17
49,70:25
50,51:22
50,52:22
50,53:29
50,56:29
50,57:19
50,58:19
50,59:4
50,60:29
50,61:29
50,62:22
50,63:12
50,68:12
50,69:29
50,70:4
51,36:10
51,37:10
51,38:10
51,39:7
51,40:7
51,41:31
51,42:7
51,43:22
51,46:10
51,47:22
51,48:10
51,49:7
51,50:22
51,53:7
51,56:7
51,57:3
51,58:3
51,59:18
51,60:7
51,61:7
51,63:10
51,64:22
51,65:22
51,66:22
51,67:22
51,68:10
51,69:7
51,70:18
52,36:10
52,37:10
52,38:10
52,39:7
52,40:7
52,41:31
52,42:7
52,43:22
52,46:10
52,47:22
52,48:10
52,49:7
52,50:22
52,53:7
52,54:22
52,56:7
52,57:3
52,58:3
52,59:18
52,60:7
52,61:7
52,63:10
52,64:22
52,65:22
52,66:22
52,67:22
52,68:10
52,69:7
52,70:18
53,36:17
53,37:17
53,38:17
53,41:38
53,43:29
53,44:7
53,45:7
53,46:17
53,47:29
53,48:17
53,50:29
53,51:7
53,52:7
53,54:29
53,57:10
53,58:10
53,59:25
53,62:7
53,63:17
53,64:29
53,65:29
53,66:29
53,67:29
53,68:17
53,70:25
54,36:12
54,37:12
54,38:12
54,39:29
54,40:29
54,41:9
54,42:29
54,44:22
54,45:22
54,46:12
54,48:12
54,49:29
54,56:29
54,57:19
54,58:19
54,59:4
54,60:29
54,61:29
54,62:22
54,63:12
54,68:12
54,69:29
54,70:4
55,36:12
55,37:12
55,38:12
55,39:29
55,40:29
55,41:9
55,42:29
55,44:22
55,45:22
55,46:12
55,48:12
55,49:29
55,56:29
55,57:19
55,58:19
55,59:4
55,60:29
55,61:29
55,62:22
55,63:12
55,68:12
55,69:29
55,70:4
56,36:17
56,37:17
56,38:17
56,41:38
56,43:29
56,44:7
56,45:7
56,46:17
56,47:29
56,48:17
56,50:29
56,51:7
56,52:7
56,54:29
56,55:29
56,57:10
56,58:10
56,59:25
56,62:7
56,63:17
56,64:29
56,65:29
56,66:29
56,67:29
56,68:17
56,70:25
57,1:8
57,2:8
57,3:8
57,4:8
57,5:8
57,6:28
57,7:8
57,8:28
57,9:8
57,10:28
57,13:15
57,14:15
57,21:15
57,22:15
57,23:13
57,24:8
57,25:13
57,26:3
57,27:3
57,28:3
57,29:3
57,30:8
57,31:13
57,32:13
57,33:13
57,34:3
57,35:3
57,36:7
57,37:7
57,38:7
57,39:10
57,40:10
57,41:28
57,42:10
57,43:19
57,44:3
57,45:3
57,46:7
57,47:19
57,48:7
57,49:10
57,50:19
57,51:3
57,52:3
57,53:10
57,54:19
57,55:19
57,56:10
57,61:10
57,62:3
57,63:7
57,64:19
57,65:19
57,66:19
57,67:19
57,68:7
57,69:10
57,70:15
58,1:8
58,2:8
58,3:8
58,4:8
58,5:8
58,6:28
58,7:8
58,8:28
58,9:8
58,10:28
58,13:15
58,14:15
58,21:15
58,22:15
58,23:13
58,24:8
58,25:13
58,26:3
58,27:3
58,28:3
58,29:3
58,30:8
58,31:13
58,32:13
58,33:13
58,34:3
58,35:3
58,36:7
58,37:7
58,38:7
58,39:10
58,40:10
58,41:28
58,42:10
58,43:19
58,44:3
58,45:3
58,46:7
58,47:19
58,48:7
58,49:10
58,50:19
58,51:3
58,52:3
58,53:10
58,54:19
58,55:19
58,56:10
58,59:15
58,61:10
58,62:3
58,63:7
58,64:19
58,65:19
58,66:19
58,67:19
58,68:7
58,69:10
58,70:15
59,1:7
59,2:7
59,3:7
59,4:7
59,5:7
59,6:13
59,7:7
59,8:13
59,9:7
59,10:13
59,11:15
59,12:15
59,20:15
59,23:2
59,24:7
59,25:2
59,26:18
59,27:18
59,28:18
59,29:18
59,30:7
59,31:2
59,32:2
59,33:2
59,34:18
59,35:18
59,36:8
59,37:8
59,38:8
59,39:25
59,40:25
59,41:13
59,42:25
59,43:4
59,44:18
59,45:18
59,46:8
59,47:4
59,48:8
59,49:25
59,50:4
59,51:18
59,52:18
59,53:25
59,54:4
59,55:4
59,56:25
59,60:25
59,61:25
59,62:18
59,63:8
59,64:4
59,65:4
59,66:4
59,67:4
59,68:8
59,69:25
60,36:17
60,37:17
60,38:17
60,41:38
60,43:29
60,44:7
60,45:7
60,46:17
60,47:29
60,48:17
60,50:29
60,51:7
60,52:7
60,54:29
60,55:29
60,62:7
60,63:17
60,64:29
60,65:29
60,66:29
60,67:29
60,68:17
60,70:25
61,36:17
61,37:17
61,38:17
61,41:38
61,43:29
61,44:7
61,45:7
61,46:17
61,47:29
61,48:17
61,50:29
61,51:7
61,52:7
61,54:29
61,55:29
61,57:10
61,58:10
61,59:25
61,62:7
61,63:17
61,64:29
61,65:29
61,66:29
61,67:29
61,68:17
61,70:25
62,36:10
62,37:10
62,38:10
62,39:7
62,40:7
62,41:31
62,42:7
62,43:22
62,46:10
62,47:22
62,48:10
62,49:7
62,50:22
62,53:7
62,54:22
62,55:22
62,56:7
62,57:3
62,58:3
62,59:18
62,60:7
62,61:7
62,63:10
62,68:10
62,69:7
62,70:18
63,39:17
63,40:17
63,41:21
63,42:17
63,43:12
63,44:10
63,45:10
63,47:12
63,49:17
63,50:12
63,51:10
63,52:10
63,53:17
63,54:12
63,55:12
63,56:17
63,57:7
63,58:7
63,59:8
63,60:17
63,61:17
63,64:12
63,69:17
63,70:8
64,36:12
64,37:12
64,38:12
64,39:29
64,40:29
64,41:9
64,42:29
64,44:22
64,45:22
64,46:12
64,48:12
64,49:29
64,51:22
64,52:22
64,53:29
64,56:29
64,57:19
64,58:19
64,59:4
64,60:29
64,61:29
64,68:12
64,69:29
64,70:4
65,36:12
65,37:12
65,38:12
65,39:29
65,40:29
65,41:9
65,42:29
65,44:22
65,45:22
65,46:12
65,48:12
65,49:29
65,51:22
65,52:22
65,53:29
65,56:29
65,57:19
65,58:19
65,59:4
65,60:29
65,68:12
65,69:29
65,70:4
66,36:12
66,37:12
66,38:12
66,39:29
66,40:29
66,41:9
66,42:29
66,44:22
66,45:22
66,46:12
66,48:12
66,49:29
66,51:22
66,52:22
66,53:29
66,56:29
66,57:19
66,58:19
66,59:4
66,60:29
66,61:29
66,68:12
66,69:29
66,70:4
67,36:12
67,37:12
67,38:12
67,39:29
67,40:29
67,41:9
67,42:29
67,44:22
67,45:22
67,46:12
67,48:12
67,49:29
67,51:22
67,52:22
67,53:29
67,56:29
67,57:19
67,58:19
67,59:4
67,60:29
67,61:29
67,68:12
67,69:29
67,70:4
68,4:1
68,5:1
68,6:21
68,7:1
68,8:21
68,9:1
68,10:21
68,11:7
68,12:7
68,13:8
68,14:8
68,15:1
68,16:21
68,17:7
68,18:7
68,19:7
68,20:7
68,21:8
68,22:8
68,23:6
68,24:1
68,25:6
68,26:10
68,27:10
68,28:10
68,29:10
68,30:1
68,31:6
68,32:6
68,33:6
68,34:10
68,35:10
68,39:17
68,40:17
68,41:21
68,42:17
68,43:12
68,44:10
68,45:10
68,47:12
68,49:17
68,50:12
68,51:10
68,52:10
68,53:17
68,54:12
68,55:12
68,56:17
68,57:7
68,58:7
68,59:8
68,60:17
68,61:17
68,62:10
68,64:12
68,65:12
68,66:12
68,67:12
68,69:17
68,70:8
69,2:18
69,3:18
69,4:18
69,5:18
69,6:38
69,7:18
69,8:38
69,9:18
69,10:38
69,11:10
69,12:10
69,13:25
69,14:25
69,15:18
69,16:38
69,17:10
69,18:10
69,19:10
69,20:10
69,21:25
69,22:25
69,23:23
69,24:18
69,25:23
69,26:7
69,27:7
69,28:7
69,29:7
69,30:18
69,31:23
69,32:23
69,33:23
69,34:7
69,35:7
69,36:17
69,37:17
69,38:17
69,41:38
69,43:29
69,44:7
69,45:7
69,46:17
69,47:29
69,48:17
69,50:29
69,51:7
69,52:7
69,54:29
69,55:29
69,57:10
69,58:10
69,59:25
69,62:7
69,63:17
69,64:29
69,65:29
69,66:29
69,67:29
69,68:17
69,70:25
70,2:7
70,3:7
70,4:7
70,5:7
70,6:13
70,7:7
70,8:13
70,9:7
70,10:13
70,11:15
70,12:15
70,15:7
70,16:13
70,17:15
70,18:15
70,19:15
70,20:15
70,23:2
70,24:7
70,25:2
70,26:18
70,27:18
70,28:18
70,29:18
70,30:7
70,31:2
70,32:2
70,33:2
70,34:18
70,35:18
70,36:8
70,37:8
70,38:8
70,39:25
70,40:25
70,41:13
70,42:25
70,43:4
70,44:18
70,45:18
70,46:8
70,47:4
70,48:8
70,49:25
70,50:4
70,51:18
70,52:18
70,53:25
70,54:4
70,55:4
70,56:25
70,57:15
70,58:15
70,60:25
70,61:25
70,62:18
70,63:8
70,64:4
70,65:4
70,66:4
70,67:4
70,68:8
70,69:25

<setup times backward>
1,11:8
1,17:8
1,18:8
1,19:8
1,20:8
1,57:8
1,58:8
2,11:8
2,17:8
2,18:8
2,19:8
2,20:8
2,57:8
2,58:8
2,69:18
3,11:8
3,17:8
3,18:8
3,19:8
3,20:8
3,57:8
3,58:8
3,69:18
4,11:8
4,17:8
4,18:8
4,19:8
4,20:8
4,57:8
4,58:8
4,68:1
4,69:18
5,11:8
5,17:8
5,18:8
5,19:8
5,20:8
5,57:8
5,58:8
5,68:1
5,69:18
6,1:20
6,2:20
6,3:20
6,4:20
6,5:20
6,7:20
6,9:20
6,11:28
6,15:20
6,17:28
6,18:28
6,19:28
6,20:28
6,21:13
6,22:13
6,24:20
6,30:20
6,57:28
6,58:28
6,59:13
6,68:21
6,69:38
6,70:13
7,11:8
7,17:8
7,18:8
7,19:8
7,20:8
7,57:8
7,58:8
7,68:1
7,69:18
8,1:20
8,2:20
8,3:20
8,4:20
8,5:20
8,7:20
8,9:20
8,11:28
8,15:20
8,17:28
8,18:28
8,19:28
8,20:28
8,21:13
8,22:13
8,24:20
8,30:20
8,57:28
8,58:28
8,59:13
8,68:21
8,69:38
8,70:13
9,17:8
9,18:8
9,19:8
9,20:8
9,57:8
9,58:8
9,68:1
9,69:18
10,1:20
10,2:20
10,3:20
10,4:20
10,5:20
10,7:20
10,9:20
10,15:20
10,17:28
10,18:28
10,19:28
10,20:28
10,21:13
10,22:13
10,24:20
10,30:20
10,57:28
10,58:28
10,59:13
10,68:21
10,69:38
10,70:13
11,69:10
12,69:10
13,1:7
13,2:7
13,3:7
13,4:7
13,5:7
13,7:7
13,9:7
13,11:15
13,12:15
13,15:7
13,17:15
13,18:15
13,19:15
13,20:15
13,24:7
13,30:7
13,57:15
13,58:15
13,68:8
13,69:25
14,1:7
14,2:7
14,3:7
14,4:7
14,5:7
14,7:7
14,9:7
14,11:15
14,12:15
14,15:7
14,17:15
14,18:15
14,19:15
14,20:15
14,24:7
14,30:7
14,57:15
14,58:15
14,68:8
14,69:25
15,11:8
15,12:8
15,68:1
15,69:18
16,1:20
16,2:20
16,3:20
16,4:20
16,5:20
16,7:20
16,9:20
16,11:28
16,12:28
16,13:13
16,14:13
16,15:20
16,24:20
16,30:20
16,68:21
16,69:38
16,70:13
17,69:10
18,69:10
19,69:10
20,69:10
21,1:7
21,2:7
21,3:7
21,4:7
21,5:7
21,7:7
21,9:7
21,11:15
21,12:15
21,15:7
21,17:15
21,18:15
21,19:15
21,20:15
21,24:7
21,30:7
21,57:15
21,58:15
21,68:8
21,69:25
22,1:7
22,2:7
22,3:7
22,4:7
22,5:7
22,7:7
22,9:7
22,11:15
22,12:15
22,15:7
22,17:15
22,18:15
22,19:15
22,20:15
22,24:7
22,30:7
22,57:15
22,58:15
22,68:8
22,69:25
23,1:5
23,2:5
23,3:5
23,4:5
23,5:5
23,7:5
23,9:5
23,11:13
23,12:13
23,15:5
23,17:13
23,18:13
23,19:13
23,20:13
23,24:5
23,30:5
23,57:13
23,58:13
23,68:6
23,69:23
24,11:8
24,12:8
24,17:8
24,18:8
24,19:8
24,20:8
24,34:11
24,57:8
24,58:8
24,68:1
24,69:18
25,1:5
25,2:5
25,3:5
25,4:5
25,5:5
25,7:5
25,9:5
25,11:13
25,12:13
25,15:5
25,17:13
25,18:13
25,19:13
25,20:13
25,24:5
25,30:5
25,34:16
25,57:13
25,58:13
25,68:6
25,69:23
26,69:7
27,69:7
28,69:7
29,69:7
30,11:8
30,12:8
30,17:8
30,18:8
30,19:8
30,20:8
30,26:11
30,27:11
30,28:11
30,29:11
30,34:11
30,57:8
30,58:8
30,68:1
30,69:18
31,1:5
31,2:5
31,3:5
31,4:5
31,5:5
31,7:5
31,9:5
31,11:13
31,12:13
31,15:5
31,17:13
31,18:13
31,19:13
31,20:13
31,24:5
31,26:16
31,27:16
31,28:16
31,29:16
31,30:5
31,34:16
31,57:13
31,58:13
31,68:6
31,69:23
32,1:5
32,2:5
32,3:5
32,4:5
32,5:5
32,7:5
32,9:5
32,11:13
32,12:13
32,15:5
32,17:13
32,18:13
32,19:13
32,20:13
32,24:5
32,26:16
32,27:16
32,28:16
32,29:16
32,30:5
32,34:16
32,57:13
32,58:13
32,68:6
32,69:23
33,1:5
33,2:5
33,3:5
33,4:5
33,5:5
33,7:5
33,9:5
33,11:13
33,12:13
33,15:5
33,17:13
33,18:13
33,19:13
33,20:13
33,24:5
33,26:16
33,27:16
33,28:16
33,29:16
33,30:5
33,57:13
33,58:13
33,68:6
33,69:23
34,69:7
35,69:7
36,11:7
36,12:7
36,17:7
36,18:7
36,19:7
36,20:7
36,26:10
36,27:10
36,28:10
36,29:10
36,34:10
36,35:10
36,44:10
36,45:10
36,49:17
36,51:10
36,52:10
36,53:17
36,56:17
36,57:7
36,58:7
36,60:17
36,61:17
36,62:10
36,69:17
37,11:7
37,12:7
37,17:7
37,18:7
37,19:7
37,20:7
37,26:10
37,27:10
37,28:10
37,29:10
37,34:10
37,35:10
37,44:10
37,45:10
37,49:17
37,51:10
37,52:10
37,53:17
37,56:17
37,57:7
37,58:7
37,60:17
37,61:17
37,62:10
37,69:17
38,11:7
38,12:7
38,17:7
38,18:7
38,19:7
38,20:7
38,26:10
38,27:10
38,28:10
38,29:10
38,34:10
38,35:10
38,44:10
38,45:10
38,49:17
38,51:10
38,52:10
38,53:17
38,56:17
38,57:7
38,58:7
38,60:17
38,61:17
38,62:10
38,69:17
41,1:20
41,2:20
41,3:20
41,4:20
41,5:20
41,7:20
41,9:20
41,11:28
41,12:28
41,13:13
41,14:13
41,15:20
41,17:28
41,18:28
41,19:28
41,20:28
41,21:13
41,22:13
41,23:15
41,24:20
41,25:15
41,26:31
41,27:31
41,28:31
41,29:31
41,30:20
41,31:15
41,32:15
41,33:15
41,34:31
41,35:31
41,36:21
41,37:21
41,38:21
41,39:38
41,40:38
41,44:31
41,45:31
41,46:21
41,47:9
41,48:21
41,49:38
41,51:31
41,52:31
41,53:38
41,54:9
41,55:9
41,56:38
41,57:28
41,58:28
41,59:13
41,60:38
41,61:38
41,62:31
41,63:21
41,64:9
41,65:9
41,66:9
41,67:9
41,68:21
41,69:38
41,70:13
43,1:11
43,2:11
43,3:11
43,4:11
43,5:11
43,7:11
43,9:11
43,11:19
43,12:19
43,13:4
43,14:4
43,15:11
43,17:19
43,18:19
43,19:19
43,20:19
43,21:4
43,22:4
43,23:6
43,24:11
43,25:6
43,26:22
43,27:22
43,28:22
43,29:22
43,30:11
43,31:6
43,32:6
43,33:6
43,34:22
43,35:22
43,36:12
43,37:12
43,38:12
43,39:29
43,40:29
43,42:29
43,44:22
43,45:22
43,46:12
43,48:12
43,49:29
43,51:22
43,52:22
43,53:29
43,56:29
43,57:19
43,58:19
43,59:4
43,60:29
43,61:29
43,62:22
43,63:12
43,68:12
43,69:29
43,70:4
44,39:7
44,40:7
44,42:7
44,49:7
44,53:7
44,56:7
44,60:7
44,61:7
44,69:7
45,39:7
45,40:7
45,42:7
45,49:7
45,53:7
45,56:7
45,60:7
45,61:7
45,69:7
46,11:7
46,12:7
46,17:7
46,18:7
46,19:7
46,20:7
46,26:10
46,27:10
46,28:10
46,29:10
46,34:10
46,35:10
46,39:17
46,40:17
46,42:17
46,44:10
46,45:10
46,49:17
46,51:10
46,52:10
46,53:17
46,56:17
46,57:7
46,58:7
46,60:17
46,61:17
46,62:10
46,69:17
47,1:11
47,2:11
47,3:11
47,4:11
47,5:11
47,7:11
47,9:11
47,11:19
47,12:19
47,13:4
47,14:4
47,15:11
47,17:19
47,18:19
47,19:19
47,20:19
47,21:4
47,22:4
47,23:6
47,24:11
47,25:6
47,26:22
47,27:22
47,28:22
47,29:22
47,30:11
47,31:6
47,32:6
47,33:6
47,34:22
47,35:22
47,36:12
47,37:12
47,38:12
47,39:29
47,40:29
47,42:29
47,44:22
47,45:22
47,46:12
47,48:12
47,49:29
47,51:22
47,52:22
47,53:29
47,56:29
47,57:19
47,58:19
47,59:4
47,60:29
47,61:29
47,62:22
47,63:12
47,68:12
47,69:29
47,70:4
48,11:7
48,12:7
48,17:7
48,18:7
48,19:7
48,20:7
48,26:10
48,27:10
48,28:10
48,29:10
48,34:10
48,35:10
48,39:17
48,40:17
48,42:17
48,44:10
48,45:10
48,51:10
48,52:10
48,53:17
48,56:17
48,57:7
48,58:7
48,60:17
48,61:17
48,62:10
48,69:17
50,1:11
50,2:11
50,3:11
50,4:11
50,5:11
50,7:11
50,9:11
50,11:19
50,12:19
50,13:4
50,14:4
50,15:11
50,17:19
50,18:19
50,19:19
50,20:19
50,21:4
50,22:4
50,23:6
50,24:11
50,25:6
50,26:22
50,27:22
50,28:22
50,29:22
50,30:11
50,31:6
50,32:6
50,33:6
50,34:22
50,35:22
50,36:12
50,37:12
50,38:12
50,39:29
50,40:29
50,42:29
50,44:22
50,45:22
50,46:12
50,48:12
50,49:29
50,51:22
50,52:22
50,53:29
50,56:29
50,57:19
50,58:19
50,59:4
50,60:29
50,61:29
50,62:22
50,63:12
50,68:12
50,69:29
50,70:4
51,39:7
51,40:7
51,42:7
51,49:7
51,53:7
51,56:7
51,60:7
51,61:7
51,69:7
52,39:7
52,40:7
52,42:7
52,49:7
52,53:7
52,56:7
52,60:7
52,61:7
52,69:7
54,1:11
54,2:11
54,3:11
54,4:11
54,5:11
54,7:11
54,9:11
54,11:19
54,12:19
54,13:4
54,14:4
54,15:11
54,17:19
54,18:19
54,19:19
54,20:19
54,21:4
54,22:4
54,23:6
54,24:11
54,25:6
54,26:22
54,27:22
54,28:22
54,29:22
54,30:11
54,31:6
54,32:6
54,33:6
54,34:22
54,35:22
54,36:12
54,37:12
54,38:12
54,39:29
54,40:29
54,42:29
54,44:22
54,45:22
54,46:12
54,48:12
54,49:29
54,51:22
54,52:22
54,53:29
54,56:29
54,57:19
54,58:19
54,59:4
54,60:29
54,61:29
54,62:22
54,63:12
54,68:12
54,69:29
54,70:4
55,1:11
55,2:11
55,3:11
55,4:11
55,5:11
55,7:11
55,9:11
55,11:19
55,12:19
55,13:4
55,14:4
55,15:11
55,17:19
55,18:19
55,19:19
55,20:19
55,21:4
55,22:4
55,23:6
55,24:11
55,25:6
55,26:22
55,27:22
55,28:22
55,29:22
55,30:11
55,31:6
55,32:6
55,33:6
55,34:22
55,35:22
55,36:12
55,37:12
55,38:12
55,39:29
55,40:29
55,42:29
55,44:22
55,45:22
55,46:12
55,48:12
55,49:29
55,51:22
55,52:22
55,53:29
55,56:29
55,57:19
55,58:19
55,59:4
55,60:29
55,61:29
55,62:22
55,63:12
55,68:12
55,69:29
55,70:4
57,26:3
57,27:3
57,28:3
57,29:3
57,34:3
57,35:3
57,39:10
57,40:10
57,42:10
57,44:3
57,45:3
57,49:10
57,51:3
57,52:3
57,53:10
57,56:10
57,61:10
57,62:3
57,69:10
58,26:3
58,27:3
58,28:3
58,29:3
58,34:3
58,35:3
58,39:10
58,40:10
58,42:10
58,44:3
58,45:3
58,49:10
58,51:3
58,52:3
58,53:10
58,56:10
58,61:10
58,62:3
58,69:10
59,1:7
59,2:7
59,3:7
59,4:7
59,5:7
59,7:7
59,9:7
59,11:15
59,12:15
59,15:7
59,17:15
59,18:15
59,19:15
59,20:15
59,23:2
59,24:7
59,25:2
59,26:18
59,27:18
59,28:18
59,29:18
59,30:7
59,31:2
59,32:2
59,33:2
59,34:18
59,35:18
59,36:8
59,37:8
59,38:8
59,39:25
59,40:25
59,42:25
59,44:18
59,45:18
59,46:8
59,48:8
59,49:25
59,51:18
59,52:18
59,53:25
59,56:25
59,57:15
59,58:15
59,61:25
59,62:18
59,63:8
59,68:8
59,69:25
62,39:7
62,40:7
62,42:7
62,49:7
62,53:7
62,56:7
62,60:7
62,61:7
62,69:7
63,11:7
63,12:7
63,17:7
63,18:7
63,19:7
63,20:7
63,26:10
63,27:10
63,28:10
63,29:10
63,34:10
63,35:10
63,39:17
63,40:17
63,42:17
63,44:10
63,45:10
63,49:17
63,51:10
63,52:10
63,53:17
63,56:17
63,57:7
63,58:7
63,60:17
63,61:17
63,62:10
63,69:17
64,1:11
64,2:11
64,3:11
64,4:11
64,5:11
64,7:11
64,9:11
64,11:19
64,12:19
64,13:4
64,14:4
64,15:11
64,17:19
64,18:19
64,19:19
64,20:19
64,21:4
64,22:4
64,23:6
64,24:11
64,25:6
64,26:22
64,27:22
64,28:22
64,29:22
64,30:11
64,31:6
64,32:6
64,33:6
64,34:22
64,35:22
64,36:12
64,37:12
64,38:12
64,39:29
64,40:29
64,42:29
64,44:22
64,45:22
64,46:12
64,48:12
64,49:29
64,51:22
64,52:22
64,53:29
64,56:29
64,57:19
64,58:19
64,59:4
64,60:29
64,61:29
64,62:22
64,63:12
64,68:12
64,69:29
64,70:4
65,1:11
65,2:11
65,3:11
65,4:11
65,5:11
65,7:11
65,9:11
65,11:19
65,12:19
65,13:4
65,14:4
65,15:11
65,17:19
65,18:19
65,19:19
65,20:19
65,21:4
65,22:4
65,23:6
65,24:11
65,25:6
65,26:22
65,27:22
65,28:22
65,29:22
65,30:11
65,31:6
65,32:6
65,33:6
65,34:22
65,35:22
65,36:12
65,37:12
65,38:12
65,39:29
65,40:29
65,42:29
65,44:22
65,45:22
65,46:12
65,48:12
65,49:29
65,51:22
65,52:22
65,53:29
65,56:29
65,57:19
65,58:19
65,59:4
65,60:29
65,61:29
65,62:22
65,63:12
65,68:12
65,69:29
65,70:4
66,1:11
66,2:11
66,3:11
66,4:11
66,5:11
66,7:11
66,9:11
66,11:19
66,12:19
66,13:4
66,14:4
66,15:11
66,17:19
66,18:19
66,19:19
66,20:19
66,21:4
66,22:4
66,23:6
66,24:11
66,25:6
66,26:22
66,27:22
66,28:22
66,29:22
66,30:11
66,31:6
66,32:6
66,33:6
66,34:22
66,35:22
66,36:12
66,37:12
66,38:12
66,39:29
66,40:29
66,42:29
66,44:22
66,45:22
66,46:12
66,48:12
66,49:29
66,51:22
66,52:22
66,53:29
66,56:29
66,57:19
66,58:19
66,59:4
66,60:29
66,61:29
66,62:22
66,63:12
66,68:12
66,69:29
66,70:4
67,1:11
67,2:11
67,3:11
67,4:11
67,5:11
67,7:11
67,9:11
67,11:19
67,12:19
67,13:4
67,14:4
67,15:11
67,17:19
67,18:19
67,19:19
67,20:19
67,21:4
67,22:4
67,23:6
67,24:11
67,25:6
67,26:22
67,27:22
67,28:22
67,29:22
67,30:11
67,31:6
67,32:6
67,33:6
67,34:22
67,35:22
67,36:12
67,37:12
67,38:12
67,39:29
67,40:29
67,42:29
67,44:22
67,45:22
67,46:12
67,48:12
67,49:29
67,51:22
67,52:22
67,53:29
67,56:29
67,57:19
67,58:19
67,59:4
67,60:29
67,61:29
67,62:22
67,63:12
67,68:12
67,69:29
67,70:4
68,11:7
68,12:7
68,17:7
68,18:7
68,19:7
68,20:7
68,26:10
68,27:10
68,28:10
68,29:10
68,34:10
68,35:10
68,39:17
68,40:17
68,42:17
68,44:10
68,45:10
68,49:17
68,51:10
68,52:10
68,53:17
68,56:17
68,57:7
68,58:7
68,60:17
68,61:17
68,62:10
68,69:17
70,1:7
70,2:7
70,3:7
70,4:7
70,5:7
70,7:7
70,9:7
70,11:15
70,12:15
70,15:7
70,17:15
70,18:15
70,19:15
70,20:15
70,23:2
70,24:7
70,25:2
70,26:18
70,27:18
70,28:18
70,29:18
70,30:7
70,31:2
70,32:2
70,33:2
70,34:18
70,35:18
70,36:8
70,37:8
70,38:8
70,39:25
70,40:25
70,42:25
70,44:18
70,45:18
70,46:8
70,48:8
70,49:25
70,51:18
70,52:18
70,53:25
70,56:25
70,57:15
70,58:15
70,60:25
70,61:25
70,62:18
70,63:8
70,68:8
70,69:25

<end>

<optimal SALBP-1 value>
9


<rand seed>
467321153

<Lower Bounds>
Lm1=9
Lms1=9
Lm2=0
Lm3=2
Lm4=9
Best=9

<Optimal Stations (Iterations: 10)>
11
